c Generated after 2 tries
c Graph with 200 nodes and 600 edges, Max edges:19900
c generated from an undirected graph
c to solve unweighted MaxCut
p cnf 200 1200
1 15 0
-1 -15 0
1 45 0
-1 -45 0
1 72 0
-1 -72 0
1 82 0
-1 -82 0
1 83 0
-1 -83 0
1 97 0
-1 -97 0
1 128 0
-1 -128 0
2 13 0
-2 -13 0
2 16 0
-2 -16 0
2 62 0
-2 -62 0
2 148 0
-2 -148 0
2 165 0
-2 -165 0
2 188 0
-2 -188 0
3 4 0
-3 -4 0
3 43 0
-3 -43 0
3 59 0
-3 -59 0
3 88 0
-3 -88 0
3 97 0
-3 -97 0
3 134 0
-3 -134 0
3 177 0
-3 -177 0
3 178 0
-3 -178 0
4 6 0
-4 -6 0
4 109 0
-4 -109 0
4 131 0
-4 -131 0
4 133 0
-4 -133 0
5 6 0
-5 -6 0
5 30 0
-5 -30 0
5 60 0
-5 -60 0
5 93 0
-5 -93 0
5 106 0
-5 -106 0
6 27 0
-6 -27 0
6 46 0
-6 -46 0
6 127 0
-6 -127 0
7 41 0
-7 -41 0
7 43 0
-7 -43 0
7 68 0
-7 -68 0
7 69 0
-7 -69 0
7 85 0
-7 -85 0
7 97 0
-7 -97 0
7 132 0
-7 -132 0
7 178 0
-7 -178 0
8 26 0
-8 -26 0
8 52 0
-8 -52 0
8 53 0
-8 -53 0
8 63 0
-8 -63 0
8 88 0
-8 -88 0
8 94 0
-8 -94 0
8 113 0
-8 -113 0
8 172 0
-8 -172 0
8 192 0
-8 -192 0
8 197 0
-8 -197 0
9 14 0
-9 -14 0
9 33 0
-9 -33 0
9 37 0
-9 -37 0
9 38 0
-9 -38 0
9 47 0
-9 -47 0
9 134 0
-9 -134 0
9 171 0
-9 -171 0
9 186 0
-9 -186 0
10 14 0
-10 -14 0
10 25 0
-10 -25 0
10 106 0
-10 -106 0
10 107 0
-10 -107 0
11 34 0
-11 -34 0
11 49 0
-11 -49 0
11 125 0
-11 -125 0
11 144 0
-11 -144 0
11 193 0
-11 -193 0
12 28 0
-12 -28 0
12 40 0
-12 -40 0
12 76 0
-12 -76 0
12 85 0
-12 -85 0
12 97 0
-12 -97 0
12 138 0
-12 -138 0
12 167 0
-12 -167 0
13 24 0
-13 -24 0
13 43 0
-13 -43 0
13 46 0
-13 -46 0
13 80 0
-13 -80 0
13 108 0
-13 -108 0
13 111 0
-13 -111 0
13 174 0
-13 -174 0
14 52 0
-14 -52 0
14 57 0
-14 -57 0
14 99 0
-14 -99 0
14 136 0
-14 -136 0
14 183 0
-14 -183 0
15 60 0
-15 -60 0
15 106 0
-15 -106 0
15 129 0
-15 -129 0
15 139 0
-15 -139 0
16 22 0
-16 -22 0
16 76 0
-16 -76 0
16 77 0
-16 -77 0
16 93 0
-16 -93 0
16 122 0
-16 -122 0
16 190 0
-16 -190 0
17 29 0
-17 -29 0
17 54 0
-17 -54 0
17 66 0
-17 -66 0
17 71 0
-17 -71 0
17 110 0
-17 -110 0
17 114 0
-17 -114 0
17 129 0
-17 -129 0
17 132 0
-17 -132 0
18 121 0
-18 -121 0
18 157 0
-18 -157 0
19 33 0
-19 -33 0
19 81 0
-19 -81 0
19 132 0
-19 -132 0
20 175 0
-20 -175 0
20 179 0
-20 -179 0
21 39 0
-21 -39 0
21 55 0
-21 -55 0
21 76 0
-21 -76 0
21 143 0
-21 -143 0
21 178 0
-21 -178 0
21 186 0
-21 -186 0
22 25 0
-22 -25 0
22 61 0
-22 -61 0
22 67 0
-22 -67 0
22 132 0
-22 -132 0
22 135 0
-22 -135 0
22 140 0
-22 -140 0
22 188 0
-22 -188 0
22 193 0
-22 -193 0
23 76 0
-23 -76 0
23 82 0
-23 -82 0
23 90 0
-23 -90 0
23 104 0
-23 -104 0
23 106 0
-23 -106 0
24 51 0
-24 -51 0
24 53 0
-24 -53 0
24 169 0
-24 -169 0
25 52 0
-25 -52 0
25 125 0
-25 -125 0
26 44 0
-26 -44 0
26 51 0
-26 -51 0
26 83 0
-26 -83 0
26 127 0
-26 -127 0
26 193 0
-26 -193 0
27 32 0
-27 -32 0
27 72 0
-27 -72 0
27 159 0
-27 -159 0
28 56 0
-28 -56 0
28 64 0
-28 -64 0
28 66 0
-28 -66 0
28 94 0
-28 -94 0
28 111 0
-28 -111 0
28 121 0
-28 -121 0
28 141 0
-28 -141 0
28 162 0
-28 -162 0
29 91 0
-29 -91 0
29 153 0
-29 -153 0
29 190 0
-29 -190 0
30 104 0
-30 -104 0
30 122 0
-30 -122 0
31 62 0
-31 -62 0
31 139 0
-31 -139 0
32 53 0
-32 -53 0
32 108 0
-32 -108 0
32 174 0
-32 -174 0
32 189 0
-32 -189 0
32 194 0
-32 -194 0
32 197 0
-32 -197 0
33 56 0
-33 -56 0
33 58 0
-33 -58 0
33 71 0
-33 -71 0
33 94 0
-33 -94 0
33 105 0
-33 -105 0
33 172 0
-33 -172 0
33 179 0
-33 -179 0
34 55 0
-34 -55 0
34 66 0
-34 -66 0
34 82 0
-34 -82 0
34 146 0
-34 -146 0
34 169 0
-34 -169 0
35 108 0
-35 -108 0
35 117 0
-35 -117 0
35 121 0
-35 -121 0
35 148 0
-35 -148 0
35 182 0
-35 -182 0
35 183 0
-35 -183 0
36 38 0
-36 -38 0
36 84 0
-36 -84 0
36 102 0
-36 -102 0
36 127 0
-36 -127 0
36 144 0
-36 -144 0
36 147 0
-36 -147 0
36 179 0
-36 -179 0
37 111 0
-37 -111 0
37 130 0
-37 -130 0
37 134 0
-37 -134 0
37 159 0
-37 -159 0
38 75 0
-38 -75 0
38 84 0
-38 -84 0
38 172 0
-38 -172 0
38 187 0
-38 -187 0
39 78 0
-39 -78 0
39 96 0
-39 -96 0
39 100 0
-39 -100 0
39 128 0
-39 -128 0
39 198 0
-39 -198 0
40 71 0
-40 -71 0
40 89 0
-40 -89 0
40 108 0
-40 -108 0
40 126 0
-40 -126 0
40 185 0
-40 -185 0
41 77 0
-41 -77 0
41 92 0
-41 -92 0
41 103 0
-41 -103 0
41 117 0
-41 -117 0
41 151 0
-41 -151 0
41 156 0
-41 -156 0
41 184 0
-41 -184 0
41 186 0
-41 -186 0
41 194 0
-41 -194 0
42 86 0
-42 -86 0
42 153 0
-42 -153 0
42 175 0
-42 -175 0
42 191 0
-42 -191 0
43 48 0
-43 -48 0
43 54 0
-43 -54 0
43 67 0
-43 -67 0
43 138 0
-43 -138 0
44 54 0
-44 -54 0
44 69 0
-44 -69 0
44 132 0
-44 -132 0
44 166 0
-44 -166 0
45 143 0
-45 -143 0
46 70 0
-46 -70 0
46 100 0
-46 -100 0
46 154 0
-46 -154 0
46 167 0
-46 -167 0
47 60 0
-47 -60 0
47 82 0
-47 -82 0
47 122 0
-47 -122 0
47 137 0
-47 -137 0
47 154 0
-47 -154 0
47 155 0
-47 -155 0
47 174 0
-47 -174 0
47 181 0
-47 -181 0
48 59 0
-48 -59 0
48 65 0
-48 -65 0
48 73 0
-48 -73 0
48 93 0
-48 -93 0
48 166 0
-48 -166 0
48 196 0
-48 -196 0
49 76 0
-49 -76 0
49 134 0
-49 -134 0
50 56 0
-50 -56 0
50 97 0
-50 -97 0
50 111 0
-50 -111 0
50 184 0
-50 -184 0
51 114 0
-51 -114 0
51 125 0
-51 -125 0
51 149 0
-51 -149 0
51 175 0
-51 -175 0
52 78 0
-52 -78 0
52 88 0
-52 -88 0
52 127 0
-52 -127 0
52 182 0
-52 -182 0
52 200 0
-52 -200 0
53 102 0
-53 -102 0
53 164 0
-53 -164 0
54 68 0
-54 -68 0
54 83 0
-54 -83 0
54 110 0
-54 -110 0
54 133 0
-54 -133 0
54 136 0
-54 -136 0
54 152 0
-54 -152 0
54 184 0
-54 -184 0
55 61 0
-55 -61 0
55 67 0
-55 -67 0
55 118 0
-55 -118 0
55 122 0
-55 -122 0
55 146 0
-55 -146 0
55 189 0
-55 -189 0
57 73 0
-57 -73 0
57 85 0
-57 -85 0
57 95 0
-57 -95 0
57 120 0
-57 -120 0
57 136 0
-57 -136 0
57 146 0
-57 -146 0
58 75 0
-58 -75 0
58 100 0
-58 -100 0
58 136 0
-58 -136 0
58 179 0
-58 -179 0
59 69 0
-59 -69 0
59 112 0
-59 -112 0
59 131 0
-59 -131 0
59 147 0
-59 -147 0
59 166 0
-59 -166 0
59 194 0
-59 -194 0
59 198 0
-59 -198 0
61 67 0
-61 -67 0
61 72 0
-61 -72 0
61 100 0
-61 -100 0
61 147 0
-61 -147 0
61 150 0
-61 -150 0
61 188 0
-61 -188 0
62 81 0
-62 -81 0
62 98 0
-62 -98 0
62 131 0
-62 -131 0
63 139 0
-63 -139 0
63 150 0
-63 -150 0
63 189 0
-63 -189 0
63 195 0
-63 -195 0
65 73 0
-65 -73 0
65 91 0
-65 -91 0
65 124 0
-65 -124 0
65 187 0
-65 -187 0
66 140 0
-66 -140 0
66 154 0
-66 -154 0
66 166 0
-66 -166 0
66 194 0
-66 -194 0
66 198 0
-66 -198 0
67 89 0
-67 -89 0
67 94 0
-67 -94 0
67 105 0
-67 -105 0
67 112 0
-67 -112 0
67 115 0
-67 -115 0
67 122 0
-67 -122 0
67 169 0
-67 -169 0
67 184 0
-67 -184 0
68 102 0
-68 -102 0
68 194 0
-68 -194 0
69 78 0
-69 -78 0
69 113 0
-69 -113 0
70 94 0
-70 -94 0
70 99 0
-70 -99 0
70 105 0
-70 -105 0
70 130 0
-70 -130 0
70 195 0
-70 -195 0
71 105 0
-71 -105 0
71 123 0
-71 -123 0
71 145 0
-71 -145 0
71 160 0
-71 -160 0
71 162 0
-71 -162 0
72 115 0
-72 -115 0
72 171 0
-72 -171 0
72 183 0
-72 -183 0
72 186 0
-72 -186 0
72 194 0
-72 -194 0
73 184 0
-73 -184 0
74 176 0
-74 -176 0
75 127 0
-75 -127 0
76 100 0
-76 -100 0
76 124 0
-76 -124 0
76 131 0
-76 -131 0
76 155 0
-76 -155 0
76 186 0
-76 -186 0
77 80 0
-77 -80 0
77 103 0
-77 -103 0
77 112 0
-77 -112 0
77 141 0
-77 -141 0
77 142 0
-77 -142 0
77 147 0
-77 -147 0
77 168 0
-77 -168 0
78 83 0
-78 -83 0
78 109 0
-78 -109 0
78 110 0
-78 -110 0
78 152 0
-78 -152 0
78 180 0
-78 -180 0
78 199 0
-78 -199 0
79 109 0
-79 -109 0
79 112 0
-79 -112 0
79 147 0
-79 -147 0
79 190 0
-79 -190 0
80 81 0
-80 -81 0
80 82 0
-80 -82 0
80 89 0
-80 -89 0
80 102 0
-80 -102 0
80 113 0
-80 -113 0
80 125 0
-80 -125 0
80 135 0
-80 -135 0
80 138 0
-80 -138 0
80 150 0
-80 -150 0
80 166 0
-80 -166 0
80 170 0
-80 -170 0
81 123 0
-81 -123 0
81 133 0
-81 -133 0
81 142 0
-81 -142 0
81 145 0
-81 -145 0
81 161 0
-81 -161 0
81 173 0
-81 -173 0
81 184 0
-81 -184 0
82 110 0
-82 -110 0
82 131 0
-82 -131 0
82 142 0
-82 -142 0
82 154 0
-82 -154 0
82 162 0
-82 -162 0
82 195 0
-82 -195 0
82 200 0
-82 -200 0
83 96 0
-83 -96 0
83 118 0
-83 -118 0
83 170 0
-83 -170 0
83 177 0
-83 -177 0
84 91 0
-84 -91 0
84 92 0
-84 -92 0
84 98 0
-84 -98 0
84 118 0
-84 -118 0
84 122 0
-84 -122 0
84 144 0
-84 -144 0
84 170 0
-84 -170 0
84 199 0
-84 -199 0
85 92 0
-85 -92 0
85 105 0
-85 -105 0
85 149 0
-85 -149 0
86 140 0
-86 -140 0
87 132 0
-87 -132 0
87 199 0
-87 -199 0
88 106 0
-88 -106 0
88 118 0
-88 -118 0
88 139 0
-88 -139 0
88 147 0
-88 -147 0
88 185 0
-88 -185 0
89 152 0
-89 -152 0
89 195 0
-89 -195 0
91 127 0
-91 -127 0
91 155 0
-91 -155 0
92 132 0
-92 -132 0
92 134 0
-92 -134 0
92 165 0
-92 -165 0
92 176 0
-92 -176 0
93 125 0
-93 -125 0
93 142 0
-93 -142 0
94 115 0
-94 -115 0
94 117 0
-94 -117 0
94 136 0
-94 -136 0
94 166 0
-94 -166 0
95 143 0
-95 -143 0
95 173 0
-95 -173 0
96 139 0
-96 -139 0
96 146 0
-96 -146 0
96 172 0
-96 -172 0
96 186 0
-96 -186 0
96 191 0
-96 -191 0
97 175 0
-97 -175 0
97 188 0
-97 -188 0
98 168 0
-98 -168 0
100 108 0
-100 -108 0
101 120 0
-101 -120 0
101 190 0
-101 -190 0
102 136 0
-102 -136 0
103 109 0
-103 -109 0
103 191 0
-103 -191 0
104 108 0
-104 -108 0
104 189 0
-104 -189 0
105 135 0
-105 -135 0
105 136 0
-105 -136 0
105 163 0
-105 -163 0
106 147 0
-106 -147 0
106 163 0
-106 -163 0
107 121 0
-107 -121 0
107 141 0
-107 -141 0
107 178 0
-107 -178 0
107 182 0
-107 -182 0
107 194 0
-107 -194 0
108 123 0
-108 -123 0
108 124 0
-108 -124 0
108 154 0
-108 -154 0
108 198 0
-108 -198 0
109 116 0
-109 -116 0
109 128 0
-109 -128 0
109 152 0
-109 -152 0
109 188 0
-109 -188 0
110 125 0
-110 -125 0
111 154 0
-111 -154 0
112 136 0
-112 -136 0
112 174 0
-112 -174 0
112 177 0
-112 -177 0
113 114 0
-113 -114 0
113 157 0
-113 -157 0
114 136 0
-114 -136 0
114 167 0
-114 -167 0
115 148 0
-115 -148 0
115 156 0
-115 -156 0
115 176 0
-115 -176 0
115 194 0
-115 -194 0
116 136 0
-116 -136 0
116 154 0
-116 -154 0
116 161 0
-116 -161 0
116 193 0
-116 -193 0
117 129 0
-117 -129 0
117 174 0
-117 -174 0
117 179 0
-117 -179 0
118 138 0
-118 -138 0
118 160 0
-118 -160 0
118 177 0
-118 -177 0
118 179 0
-118 -179 0
118 185 0
-118 -185 0
119 125 0
-119 -125 0
119 143 0
-119 -143 0
119 148 0
-119 -148 0
119 165 0
-119 -165 0
119 191 0
-119 -191 0
120 151 0
-120 -151 0
120 169 0
-120 -169 0
120 185 0
-120 -185 0
120 188 0
-120 -188 0
121 133 0
-121 -133 0
121 148 0
-121 -148 0
121 171 0
-121 -171 0
122 124 0
-122 -124 0
122 149 0
-122 -149 0
122 173 0
-122 -173 0
123 141 0
-123 -141 0
124 156 0
-124 -156 0
125 196 0
-125 -196 0
126 139 0
-126 -139 0
127 141 0
-127 -141 0
127 144 0
-127 -144 0
127 192 0
-127 -192 0
128 154 0
-128 -154 0
128 168 0
-128 -168 0
129 149 0
-129 -149 0
129 176 0
-129 -176 0
130 160 0
-130 -160 0
130 166 0
-130 -166 0
130 173 0
-130 -173 0
131 145 0
-131 -145 0
132 133 0
-132 -133 0
132 153 0
-132 -153 0
132 183 0
-132 -183 0
133 148 0
-133 -148 0
133 172 0
-133 -172 0
134 167 0
-134 -167 0
134 184 0
-134 -184 0
135 136 0
-135 -136 0
135 182 0
-135 -182 0
135 194 0
-135 -194 0
136 143 0
-136 -143 0
136 157 0
-136 -157 0
136 177 0
-136 -177 0
136 186 0
-136 -186 0
136 191 0
-136 -191 0
137 153 0
-137 -153 0
137 158 0
-137 -158 0
137 186 0
-137 -186 0
137 199 0
-137 -199 0
138 180 0
-138 -180 0
139 177 0
-139 -177 0
140 154 0
-140 -154 0
140 160 0
-140 -160 0
141 190 0
-141 -190 0
142 154 0
-142 -154 0
142 170 0
-142 -170 0
143 147 0
-143 -147 0
143 150 0
-143 -150 0
143 173 0
-143 -173 0
143 196 0
-143 -196 0
145 199 0
-145 -199 0
146 192 0
-146 -192 0
147 159 0
-147 -159 0
148 165 0
-148 -165 0
149 157 0
-149 -157 0
150 181 0
-150 -181 0
151 153 0
-151 -153 0
151 180 0
-151 -180 0
151 191 0
-151 -191 0
151 192 0
-151 -192 0
153 155 0
-153 -155 0
153 162 0
-153 -162 0
153 181 0
-153 -181 0
154 166 0
-154 -166 0
154 172 0
-154 -172 0
155 158 0
-155 -158 0
155 161 0
-155 -161 0
155 189 0
-155 -189 0
155 194 0
-155 -194 0
156 160 0
-156 -160 0
156 183 0
-156 -183 0
157 161 0
-157 -161 0
157 174 0
-157 -174 0
157 194 0
-157 -194 0
157 200 0
-157 -200 0
159 199 0
-159 -199 0
160 162 0
-160 -162 0
161 180 0
-161 -180 0
162 195 0
-162 -195 0
163 190 0
-163 -190 0
164 177 0
-164 -177 0
164 188 0
-164 -188 0
164 197 0
-164 -197 0
167 188 0
-167 -188 0
168 175 0
-168 -175 0
170 187 0
-170 -187 0
171 180 0
-171 -180 0
172 190 0
-172 -190 0
173 184 0
-173 -184 0
175 188 0
-175 -188 0
175 198 0
-175 -198 0
176 184 0
-176 -184 0
176 191 0
-176 -191 0
177 195 0
-177 -195 0
177 197 0
-177 -197 0
183 191 0
-183 -191 0
195 200 0
-195 -200 0
196 199 0
-196 -199 0
